analyze/results_flowersnark/final_miplib_symretope_if_extended_generating_set_cpx_v802__settings_final_nopeek_norelabel_extend_norestarts__3__neos-525149.mps.gz.sol
solution status: optimal solution found
objective value:                                   61
C0047                                               1 	(obj:1)
C0105                                               1 	(obj:1)
C0181                                               1 	(obj:1)
C0243                                               1 	(obj:1)
C0316                                               1 	(obj:1)
C0342                                               1 	(obj:1)
C0403                                               1 	(obj:1)
C0486                                               1 	(obj:1)
C0540                                               1 	(obj:1)
C0618                                               1 	(obj:1)
C0664                                               1 	(obj:1)
C0753                                               1 	(obj:1)
C0803                                               1 	(obj:1)
C0842                                               1 	(obj:1)
C0891                                               1 	(obj:1)
C0954                                               1 	(obj:1)
C1047                                               1 	(obj:1)
C1076                                               1 	(obj:1)
C1169                                               1 	(obj:1)
C1208                                               1 	(obj:1)
C1270                                               1 	(obj:1)
C1327                                               1 	(obj:1)
C1372                                               1 	(obj:1)
C1455                                               1 	(obj:1)
C1530                                               1 	(obj:1)
C1592                                               1 	(obj:1)
C1651                                               1 	(obj:1)
C1694                                               1 	(obj:1)
C1733                                               1 	(obj:1)
C1799                                               1 	(obj:1)
C1880                                               1 	(obj:1)
C1958                                               1 	(obj:1)
C1999                                               1 	(obj:1)
C2077                                               1 	(obj:1)
C2081                                               1 	(obj:1)
C2165                                               1 	(obj:1)
C2208                                               1 	(obj:1)
C2266                                               1 	(obj:1)
C2349                                               1 	(obj:1)
C2411                                               1 	(obj:1)
C2499                                               1 	(obj:1)
C2537                                               1 	(obj:1)
C2602                                               1 	(obj:1)
C2635                                               1 	(obj:1)
C2726                                               1 	(obj:1)
C2800                                               1 	(obj:1)
C2818                                               1 	(obj:1)
C2904                                               1 	(obj:1)
C2974                                               1 	(obj:1)
C3012                                               1 	(obj:1)
C3050                                               1 	(obj:1)
C3145                                               1 	(obj:1)
C3177                                               1 	(obj:1)
C3253                                               1 	(obj:1)
C3284                                               1 	(obj:1)
C3388                                               1 	(obj:1)
C3441                                               1 	(obj:1)
C3515                                               1 	(obj:1)
C3529                                               1 	(obj:1)
C3636                                               1 	(obj:1)
C0024                                               1 	(obj:1)
