analyze/results_flowersnark/final_miplib_symretope_if_extended_generating_set_cpx_v802__settings_final_nopeek_norelabel_extend_norestarts__3__neos-525149.mps.gz.out
FILENAME:   /home/mcs001/s132664/testsets/IP/miplib2017/neos-525149.mps.gz
SETTINGS:   settings_final_nopeek_norelabel_extend_norestarts
TIMELIMIT:  7200
OUTPUTNAME: final_miplib_symretope_if_extended_generating_set_cpx_v802__settings_final_nopeek_norelabel_extend_norestarts__3__
BINNAME:    bin/sbcs.linux.x86_64.gnu.opt.cpx
BASENAME:   neos-525149.mps.gz
SEED:       3
@01 /home/mcs001/s132664/testsets/IP/miplib2017/neos-525149.mps.gz ===========
@02 neos-525149.mps.gz
@03 1686663717
SCIP version 8.0.2 [precision: 8 byte] [memory: block] [mode: optimized] [LP solver: CPLEX 20.1.0.0] [GitHash: 5f0473c]
Copyright (C) 2002-2022 Konrad-Zuse-Zentrum fuer Informationstechnik Berlin (ZIB)

Symretope propagation methods - (c) Jasper van Doornmalen, Christopher Hojny.
[GitHash: 2fd0484]

reading parameter file <../settings/settings_final_nopeek_norelabel_extend_norestarts.set> ...

Changed settings:
limits/time = 7200
limits/restarts = 0
misc/usesymmetry = 1
randomization/randomseedshift = 3
constraints/orbisack/sepafreq = -1
constraints/symresack/sepafreq = -1
propagating/symmetry/addsymresacks = TRUE
propagating/symmetry/detectsubgroups = FALSE
propagating/symmetry/relabelsymretopes = 0
propagating/symmetry/extendgenerators = TRUE
propagating/symmetry/ofsymcomptiming = 0
constraints/symretope/sepafreq = -1
constraints/symretope/peek = FALSE


solving problem ...

original problem has 3640 variables (3600 bin, 0 int, 0 impl, 40 cont) and 144120 constraints
presolving:
(round 1, fast)       0 del vars, 0 del conss, 0 add conss, 40 chg bounds, 0 chg sides, 0 chg coeffs, 0 upgd conss, 0 impls, 120 clqs
(round 2, exhaustive) 0 del vars, 141600 del conss, 0 add conss, 40 chg bounds, 0 chg sides, 0 chg coeffs, 0 upgd conss, 0 impls, 120 clqs
(round 3, exhaustive) 0 del vars, 141600 del conss, 0 add conss, 40 chg bounds, 0 chg sides, 0 chg coeffs, 120 upgd conss, 0 impls, 120 clqs
   (1.3s) probing: 51/3600 (1.4%) - 0 fixings, 0 aggregations, 0 implications, 0 bound changes
   (1.3s) probing aborted: 50/50 successive totally useless probings
   (1.3s) symmetry computation started: requiring (bin +, int +, cont +), (fixed: bin -, int -, cont -)
   (1.5s) symmetry computation finished: 56 generators found (max: 1500, log10 of symmetry group size: 31.8)
(round 4, exhaustive) 60 del vars, 141603 del conss, 279 add conss, 40 chg bounds, 0 chg sides, 0 chg coeffs, 120 upgd conss, 0 impls, 120 clqs
(round 5, fast)       64 del vars, 141604 del conss, 279 add conss, 40 chg bounds, 0 chg sides, 0 chg coeffs, 120 upgd conss, 0 impls, 120 clqs
(round 6, medium)     97 del vars, 141604 del conss, 279 add conss, 40 chg bounds, 0 chg sides, 0 chg coeffs, 120 upgd conss, 0 impls, 120 clqs
(round 7, fast)       97 del vars, 141609 del conss, 279 add conss, 40 chg bounds, 0 chg sides, 0 chg coeffs, 120 upgd conss, 0 impls, 120 clqs
(round 8, medium)     119 del vars, 141609 del conss, 279 add conss, 41 chg bounds, 0 chg sides, 0 chg coeffs, 120 upgd conss, 0 impls, 120 clqs
(round 9, medium)     131 del vars, 141609 del conss, 279 add conss, 41 chg bounds, 0 chg sides, 0 chg coeffs, 120 upgd conss, 0 impls, 120 clqs
(round 10, medium)     135 del vars, 141609 del conss, 279 add conss, 41 chg bounds, 0 chg sides, 0 chg coeffs, 120 upgd conss, 0 impls, 120 clqs
(round 11, exhaustive) 135 del vars, 141634 del conss, 279 add conss, 41 chg bounds, 0 chg sides, 0 chg coeffs, 120 upgd conss, 0 impls, 120 clqs
   (2.5s) probing: 1000/3600 (27.8%) - 4 fixings, 0 aggregations, 24191 implications, 0 bound changes
   (3.8s) probing: 2000/3600 (55.6%) - 15 fixings, 0 aggregations, 53093 implications, 0 bound changes
   (5.2s) probing: 3000/3600 (83.3%) - 18 fixings, 0 aggregations, 82134 implications, 0 bound changes
   (6.1s) probing cycle finished: starting next cycle
(round 12, exhaustive) 153 del vars, 141634 del conss, 279 add conss, 41 chg bounds, 0 chg sides, 0 chg coeffs, 120 upgd conss, 104 impls, 101382 clqs
   (7.0s) probing: 786/3451 (22.8%) - 25 fixings, 0 aggregations, 105826 implications, 0 bound changes
   (7.0s) probing aborted: 50/50 successive totally useless probings
(round 13, exhaustive) 160 del vars, 141635 del conss, 279 add conss, 43 chg bounds, 0 chg sides, 0 chg coeffs, 120 upgd conss, 104 impls, 105278 clqs
   (7.3s) probing: 1000/3451 (29.0%) - 26 fixings, 0 aggregations, 107896 implications, 0 bound changes
   (8.7s) probing: 2000/3451 (58.0%) - 45 fixings, 0 aggregations, 125654 implications, 0 bound changes
(round 14, exhaustive) 185 del vars, 141635 del conss, 279 add conss, 43 chg bounds, 0 chg sides, 0 chg coeffs, 120 upgd conss, 109 impls, 131193 clqs
(round 15, exhaustive) 185 del vars, 141639 del conss, 279 add conss, 43 chg bounds, 4 chg sides, 0 chg coeffs, 120 upgd conss, 109 impls, 131193 clqs
   (10.2s) probing: 3000/3451 (86.9%) - 71 fixings, 0 aggregations, 143381 implications, 0 bound changes
(round 16, exhaustive) 210 del vars, 141639 del conss, 279 add conss, 43 chg bounds, 4 chg sides, 0 chg coeffs, 120 upgd conss, 117 impls, 143751 clqs
(round 17, exhaustive) 235 del vars, 141639 del conss, 279 add conss, 44 chg bounds, 4 chg sides, 0 chg coeffs, 120 upgd conss, 122 impls, 143570 clqs
   (11.1s) probing cycle finished: starting next cycle
(round 18, exhaustive) 260 del vars, 141639 del conss, 279 add conss, 44 chg bounds, 4 chg sides, 0 chg coeffs, 120 upgd conss, 144 impls, 144868 clqs
   (11.9s) probing: 541/3345 (16.2%) - 125 fixings, 0 aggregations, 156498 implications, 0 bound changes
   (11.9s) probing aborted: 50/50 successive totally useless probings
presolving (19 rounds: 19 fast, 16 medium, 12 exhaustive):
 260 deleted vars, 141639 deleted constraints, 279 added constraints, 45 tightened bounds, 0 added holes, 4 changed sides, 0 changed coefficients
 146 implications, 147741 cliques
presolved problem has 3384 variables (3344 bin, 0 int, 40 impl, 0 cont) and 2760 constraints
    120 constraints of type <setppc>
   2364 constraints of type <linear>
    154 constraints of type <orbisack>
     49 constraints of type <orbitope>
     73 constraints of type <symretope>
transformed objective value is always integral (scale: 1)
Presolving Time: 11.42

 time | node  | left  |LP iter|LP it/n|mem/heur|mdpt |vars |cons |rows |cuts |sepa|confs|strbr|  dualbound   | primalbound  |  gap   | compl. 
p12.2s|     1 |     0 |     0 |     - |shiftand|   0 |3384 |2825 |2539 |   0 |  0 |  66 |   0 | 9.000000e+00 | 2.703600e+04 |  Large | unknown
 12.3s|     1 |     0 |   310 |     - |   336M |   0 |3384 |2825 |2539 |   0 |  0 |  66 |   0 | 6.000000e+01 | 2.703600e+04 |  Large | unknown
 12.7s|     1 |     0 |   463 |     - |   337M |   0 |3384 |2825 |2547 |  30 |  1 |  67 |   0 | 6.000000e+01 | 2.703600e+04 |  Large | unknown
 12.8s|     1 |     0 |   552 |     - |   337M |   0 |3384 |2828 |2565 |  50 |  2 |  70 |   0 | 6.000000e+01 | 2.703600e+04 |  Large | unknown
 12.9s|     1 |     0 |   662 |     - |   337M |   0 |3384 |2834 |2581 |  66 |  3 |  76 |   0 | 6.000000e+01 | 2.703600e+04 |  Large | unknown
 13.0s|     1 |     0 |   729 |     - |   338M |   0 |3384 |2836 |2590 |  75 |  4 |  78 |   0 | 6.000000e+01 | 2.703600e+04 |  Large | unknown
 13.2s|     1 |     0 |   810 |     - |   338M |   0 |3384 |2836 |2584 |  82 |  5 |  79 |   0 | 6.000000e+01 | 2.703600e+04 |  Large | unknown
 13.2s|     1 |     0 |   849 |     - |   338M |   0 |3384 |2838 |2586 |  84 |  6 |  81 |   0 | 6.000000e+01 | 2.703600e+04 |  Large | unknown
 13.3s|     1 |     0 |   946 |     - |   339M |   0 |3384 |2844 |2599 |  97 |  7 |  87 |   0 | 6.000000e+01 | 2.703600e+04 |  Large | unknown
 13.5s|     1 |     0 |  1048 |     - |   339M |   0 |3384 |2845 |2612 | 110 |  8 |  88 |   0 | 6.000000e+01 | 2.703600e+04 |  Large | unknown
 13.6s|     1 |     0 |  1120 |     - |   339M |   0 |3384 |2848 |2594 | 120 |  9 |  91 |   0 | 6.000000e+01 | 2.703600e+04 |  Large | unknown
 13.7s|     1 |     0 |  1202 |     - |   339M |   0 |3384 |2848 |2602 | 128 | 10 |  96 |   0 | 6.000000e+01 | 2.703600e+04 |  Large | unknown
 13.7s|     1 |     0 |  1255 |     - |   340M |   0 |3384 |2851 |2610 | 136 | 11 |  99 |   0 | 6.000000e+01 | 2.703600e+04 |  Large | unknown
d14.0s|     1 |     0 |  2120 |     - |farkasdi|   0 |3384 |2848 |2610 |   0 | 11 | 100 |   0 | 6.000000e+01 | 6.100000e+01 |   1.67%| unknown
 14.2s|     1 |     0 |  2444 |     - |   341M |   0 |3384 |2049 |2610 | 136 | 11 |1609 |   0 | 6.000000e+01 | 6.100000e+01 |   1.67%| unknown
 time | node  | left  |LP iter|LP it/n|mem/heur|mdpt |vars |cons |rows |cuts |sepa|confs|strbr|  dualbound   | primalbound  |  gap   | compl. 
 14.2s|     1 |     0 |  2453 |     - |   341M |   0 |3384 |2049 |1635 | 136 | 11 |1609 |   0 | 6.100000e+01 | 6.100000e+01 |   0.00%| unknown
 14.2s|     1 |     0 |  2453 |     - |   341M |   0 |3384 |2049 |1635 | 136 | 11 |1609 |   0 | 6.100000e+01 | 6.100000e+01 |   0.00%| unknown

SCIP Status        : problem is solved [optimal solution found]
Solving Time (sec) : 14.19
Solving Nodes      : 1
Primal Bound       : +6.10000000000000e+01 (3 solutions)
Dual Bound         : +6.10000000000000e+01
Gap                : 0.00 %
SCIP Status        : problem is solved [optimal solution found]
Total Time         :      15.71
  solving          :      14.19
  presolving       :      11.42 (included in solving)
  reading          :       1.52
  copying          :       0.02 (2 #copies) (minimal 0.01, maximal 0.01, average 0.01)
Original Problem   :
  Problem name     : neos-525149
  Variables        : 3640 (3600 binary, 0 integer, 0 implicit integer, 40 continuous)
  Constraints      : 144120 initial, 144120 maximal
  Objective        : minimize, 3640 non-zeros (abs.min = 1, abs.max = 1000)
Presolved Problem  :
  Problem name     : t_neos-525149
  Variables        : 3384 (3344 binary, 0 integer, 40 implicit integer, 0 continuous)
  Constraints      : 2760 initial, 2852 maximal
  Objective        : minimize, 2914 non-zeros (abs.min = 1, abs.max = 1000)
  Nonzeros         : 114238 constraint, 292648 clique table
Presolvers         :   ExecTime  SetupTime  Calls  FixedVars   AggrVars   ChgTypes  ChgBounds   AddHoles    DelCons    AddCons   ChgSides   ChgCoefs
  boundshift       :       0.00       0.00      0          0          0          0          0          0          0          0          0          0
  convertinttobin  :       0.00       0.00      0          0          0          0          0          0          0          0          0          0
  domcol           :       0.00       0.00      8          0          0          0          0          0          0          0          0          0
  dualagg          :       0.00       0.00      0          0          0          0          0          0          0          0          0          0
  dualcomp         :       0.00       0.00      0          0          0          0          0          0          0          0          0          0
  dualinfer        :       0.00       0.00      0          0          0          0          0          0          0          0          0          0
  dualsparsify     :       0.01       0.00      1          0          0          0          0          0          0          0          0          0
  gateextraction   :       0.00       0.00      0          0          0          0          0          0          0          0          0          0
  implics          :       0.00       0.00     16          0          0          0          0          0          0          0          0          0
  inttobinary      :       0.00       0.00      0          0          0          0          0          0          0          0          0          0
  qpkktref         :       0.00       0.00      0          0          0          0          0          0          0          0          0          0
  redvub           :       0.00       0.00      0          0          0          0          0          0          0          0          0          0
  sparsify         :       0.07       0.00      2          0          0          0          0          0          0          0          0          0
  stuffing         :       0.00       0.00      0          0          0          0          0          0          0          0          0          0
  trivial          :       0.00       0.00     19          4          0          0          0          0          0          0          0          0
  tworowbnd        :       0.00       0.00      0          0          0          0          0          0          0          0          0          0
  dualfix          :       0.00       0.00     19          0          0          0          0          0          0          0          0          0
  genvbounds       :       0.00       0.00      0          0          0          0          0          0          0          0          0          0
  probing          :      10.21       0.00      8        125          0          0          0          0          0          0          0          0
  pseudoobj        :       0.00       0.00      0          0          0          0          0          0          0          0          0          0
  symmetry         :       0.22       0.00      1         60          0          0          0          0          3        279          0          0
  vbounds          :       0.08       0.00      4          0          0          0          0          0          0          0          0          0
  setppc           :       0.01       0.00     40          0          0          0          0          0          0          0          0          0
  linear           :       0.63       0.22     31          0          0          0         45          0     141636          0          4          0
  orbisack         :       0.00       0.00      7          0          0          0          0          0          0          0          0          0
  orbitope         :       0.00       0.00     13         71          0          0          0          0          0          0          0          0
  symretope        :       0.00       0.00      7          0          0          0          0          0          0          0          0          0
  logicor          :       0.00       0.00      0          0          0          0          0          0          0          0          0          0
  benders          :       0.00       0.00      0          0          0          0          0          0          0          0          0          0
  components       :       0.01       0.00      1          0          0          0          0          0          0          0          0          0
  root node        :          -          -      -       1641          -          -       1641          -          -          -          -          -
Constraints        :     Number  MaxNumber  #Separate #Propagate    #EnfoLP    #EnfoRelax  #EnfoPS    #Check   #ResProp    Cutoffs    DomReds       Cuts    Applied      Conss   Children
  benderslp        :          0          0          0          0          0          0          0         13          0          0          0          0          0          0          0
  integral         :          0          0          0          0          0          0          0         13          0          0          0          0          0          0          0
  setppc           :        120+       146         11      16921          0          0          0          7       1237        134          0          2          0          0          0
  linear           :       2364       2364         11      16786          0          0          0          3          0          0          0          0          0          0          0
  orbisack         :        154        154          0         35          0          0          0          3        108          7          0          0          0          0          0
  orbitope         :         49         49          0      16681          0          0          0          3       5702         26         21          0          0          0          0
  symretope        :         73         73          0        172          0          0          0          3         14          2          0          0          0          0          0
  logicor          :          0+        69         11         70          0          0          0          0          0          2          0          1          1          0          0
  benders          :          0          0          0          0          0          0          0          4          0          0          0          0          0          0          0
  countsols        :          0          0          0          0          0          0          0          4          0          0          0          0          0          0          0
  components       :          0          0          0          0          0          0          0          0          0          0          0          0          0          0          0
Constraint Timings :  TotalTime  SetupTime   Separate  Propagate     EnfoLP     EnfoPS     EnfoRelax   Check    ResProp    SB-Prop
  benderslp        :       0.00       0.00       0.00       0.00       0.00       0.00       0.00       0.00       0.00       0.00
  integral         :       0.00       0.00       0.00       0.00       0.00       0.00       0.00       0.00       0.00       0.00
  setppc           :       0.14       0.00       0.00       0.13       0.00       0.00       0.00       0.00       0.00       0.00
  linear           :       0.83       0.22       0.01       0.60       0.00       0.00       0.00       0.00       0.00       0.00
  orbisack         :       0.01       0.00       0.00       0.01       0.00       0.00       0.00       0.00       0.00       0.00
  orbitope         :       1.28       0.00       0.00       1.27       0.00       0.00       0.00       0.00       0.02       0.00
  symretope        :       0.02       0.00       0.00       0.02       0.00       0.00       0.00       0.00       0.00       0.00
  logicor          :       0.00       0.00       0.00       0.00       0.00       0.00       0.00       0.00       0.00       0.00
  benders          :       0.00       0.00       0.00       0.00       0.00       0.00       0.00       0.00       0.00       0.00
  countsols        :       0.00       0.00       0.00       0.00       0.00       0.00       0.00       0.00       0.00       0.00
  components       :       0.00       0.00       0.00       0.00       0.00       0.00       0.00       0.00       0.00       0.00
Propagators        : #Propagate   #ResProp    Cutoffs    DomReds
  dualfix          :          4          0          0          0
  genvbounds       :          0          0          0          0
  nlobbt           :          0          0          0          0
  obbt             :          0          0          0          0
  probing          :          0          0          0          0
  pseudoobj        :         19          0          0          0
  redcost          :         14          0          0         90
  rootredcost      :          0          0          0          0
  symmetry         :          0          0          0          0
  vbounds          :        448          0          0          0
Propagator Timings :  TotalTime  SetupTime   Presolve  Propagate    ResProp    SB-Prop
  dualfix          :       0.00       0.00       0.00       0.00       0.00       0.00
  genvbounds       :       0.00       0.00       0.00       0.00       0.00       0.00
  nlobbt           :       0.00       0.00       0.00       0.00       0.00       0.00
  obbt             :       0.00       0.00       0.00       0.00       0.00       0.00
  probing          :      10.21       0.00      10.21       0.00       0.00       0.00
  pseudoobj        :       0.10       0.00       0.00       0.10       0.00       0.00
  redcost          :       0.01       0.00       0.00       0.01       0.00       0.00
  rootredcost      :       0.00       0.00       0.00       0.00       0.00       0.00
  symmetry         :       0.22       0.00       0.22       0.00       0.00       0.00
  vbounds          :       0.08       0.00       0.08       0.00       0.00       0.00
Orbital fixing     :
  vars fixed to 0  :          0
  vars fixed to 1  :          0
Conflict Analysis  :       Time      Calls    Success    DomReds  Conflicts   Literals    Reconvs ReconvLits   Dualrays   Nonzeros   LP Iters   (pool size: [10000,10000])
  propagation      :       0.02        160         36          -        360      137.8          0        0.0          -          -          -
  infeasible LP    :       0.00          0          0          -          0        0.0          0        0.0          0        0.0          0
  bound exceed. LP :       0.02          1       1507          -          3       56.0          0        0.0       1506        1.0          0
  strong branching :       0.00          0          0          -          0        0.0          0        0.0          -          -          0
  pseudo solution  :       0.00          0          0          -          0        0.0          0        0.0          -          -          -
  applied globally :       0.02          -          -       1506        103       41.7          -          -       1506          -          -
  applied locally  :          -          -          -          0          0        0.0          -          -          0          -          -
Separators         :   ExecTime  SetupTime      Calls  RootCalls    Cutoffs    DomReds  FoundCuts ViaPoolAdd  DirectAdd    Applied ViaPoolApp  DirectApp      Conss
  cut pool         :       0.00          -         21         21          -          -        549        314          -          -          -          -          -    (maximal pool size:        549)
  aggregation      :       0.04       0.00         11         11          0          0         23         33          0          0          0          0          0
  > cmir           :          -          -          -          -          -          -          -         33          0          0          0          0          -
  > flowcover      :          -          -          -          -          -          -          -          0          0          0          0          0          -
  > knapsackcover  :          -          -          -          -          -          -          -          0          0          0          0          0          -
  cgmip            :       0.00       0.00          0          0          0          0          0          0          0          0          0          0          0
  clique           :       0.27       0.00         11         11          0          0         61          9          0          1          1          0          0
  closecuts        :       0.00       0.00          0          0          0          0          0          0          0          0          0          0          0
  convexproj       :       0.00       0.00          0          0          0          0          0          0          0          0          0          0          0
  disjunctive      :       0.00       0.00          0          0          0          0          0          0          0          0          0          0          0
  eccuts           :       0.00       0.00          0          0          0          0          0          0          0          0          0          0          0
  gauge            :       0.00       0.00          0          0          0          0          0          0          0          0          0          0          0
  gomory           :       0.23       0.00         10         10          0          0        120         10          6          6          1          5          0
  > gomorymi       :          -          -          -          -          -          -          -          1          3          3          0          3          -
  > strongcg       :          -          -          -          -          -          -          -          9          3          3          1          2          -
  impliedbounds    :       0.07       0.00         11         11          0         15        321        253          0        122        122          0          0
  interminor       :       0.00       0.00          0          0          0          0          0          0          0          0          0          0          0
  intobj           :       0.00       0.00          0          0          0          0          0          0          0          0          0          0          0
  mcf              :       0.00       0.00          1          1          0          0          0          0          0          0          0          0          0
  minor            :       0.00       0.00          0          0          0          0          0          0          0          0          0          0          0
  mixing           :       0.00       0.00         11         11          0          0          0          0          0          0          0          0          0
  oddcycle         :       0.00       0.00          0          0          0          0          0          0          0          0          0          0          0
  rapidlearning    :       0.00       0.00          0          0          0          0          0          0          0          0          0          0          0
  rlt              :       0.00       0.00         10         10          0          0          0          0          0          0          0          0          0
  zerohalf         :       0.03       0.00         11         11          0          0         30          9          0          5          5          0          0
Cutselectors       :   ExecTime  SetupTime      Calls  RootCalls   Selected     Forced   Filtered  RootSelec   RootForc   RootFilt 
  hybrid           :       0.00       0.00         11         11        130          6        193        130          6        193
Pricers            :   ExecTime  SetupTime      Calls       Vars
  problem variables:       0.00          -          0          0
Branching Rules    :   ExecTime  SetupTime   BranchLP  BranchExt   BranchPS    Cutoffs    DomReds       Cuts      Conss   Children
  allfullstrong    :       0.00       0.00          0          0          0          0          0          0          0          0
  cloud            :       0.00       0.00          0          0          0          0          0          0          0          0
  distribution     :       0.00       0.00          0          0          0          0          0          0          0          0
  fullstrong       :       0.00       0.00          0          0          0          0          0          0          0          0
  inference        :       0.00       0.00          0          0          0          0          0          0          0          0
  leastinf         :       0.00       0.00          0          0          0          0          0          0          0          0
  lookahead        :       0.00       0.00          0          0          0          0          0          0          0          0
  mostinf          :       0.00       0.00          0          0          0          0          0          0          0          0
  multaggr         :       0.00       0.00          0          0          0          0          0          0          0          0
  nodereopt        :       0.00       0.00          0          0          0          0          0          0          0          0
  pscost           :       0.00       0.00          0          0          0          0          0          0          0          0
  random           :       0.00       0.00          0          0          0          0          0          0          0          0
  relpscost        :       0.00       0.00          0          0          0          0          0          0          0          0
  vanillafullstrong:       0.00       0.00          0          0          0          0          0          0          0          0
Primal Heuristics  :   ExecTime  SetupTime      Calls      Found       Best
  LP solutions     :       0.00          -          -          0          0
  relax solutions  :       0.00          -          -          0          0
  pseudo solutions :       0.00          -          -          0          0
  strong branching :       0.00          -          -          0          0
  actconsdiving    :       0.00       0.00          0          0          0
  adaptivediving   :       0.00       0.00          0          0          0
  alns             :       0.04       0.00          1          0          0
  bound            :       0.00       0.00          0          0          0
  clique           :       0.04       0.00          1          0          0
  coefdiving       :       0.00       0.00          0          0          0
  completesol      :       0.00       0.00          0          0          0
  conflictdiving   :       0.04       0.00          1          0          0
  crossover        :       0.00       0.00          0          0          0
  dins             :       0.00       0.00          0          0          0
  distributiondivin:       0.00       0.00          0          0          0
  dps              :       0.00       0.00          0          0          0
  dualval          :       0.00       0.00          0          0          0
  farkasdiving     :       0.21       0.00          1          1          1
  feaspump         :       0.05       0.00          1          1          0
  fixandinfer      :       0.00       0.00          0          0          0
  fracdiving       :       0.00       0.00          0          0          0
  gins             :       0.00       0.00          0          0          0
  guideddiving     :       0.00       0.00          0          0          0
  indicator        :       0.00       0.00          0          0          0
  intdiving        :       0.00       0.00          0          0          0
  intshifting      :       0.00       0.00          0          0          0
  linesearchdiving :       0.00       0.00          0          0          0
  localbranching   :       0.00       0.00          0          0          0
  locks            :       0.06       0.00          1          0          0
  lpface           :       0.00       0.00          0          0          0
  mpec             :       0.00       0.00          0          0          0
  multistart       :       0.00       0.00          0          0          0
  mutation         :       0.00       0.00          0          0          0
  nlpdiving        :       0.00       0.00          0          0          0
  objpscostdiving  :       0.00       0.00          0          0          0
  octane           :       0.00       0.00          0          0          0
  ofins            :       0.00       0.00          0          0          0
  oneopt           :       0.00       0.00          1          0          0
  padm             :       0.00       0.00          0          0          0
  proximity        :       0.00       0.00          0          0          0
  pscostdiving     :       0.00       0.00          0          0          0
  randrounding     :       0.11       0.00         12          0          0
  rens             :       0.03       0.00          1          0          0
  reoptsols        :       0.00       0.00          0          0          0
  repair           :       0.00       0.00          0          0          0
  rins             :       0.00       0.00          0          0          0
  rootsoldiving    :       0.00       0.00          0          0          0
  rounding         :       0.00       0.00         12          0          0
  shiftandpropagate:       0.05       0.00          1          1          1
  shifting         :       0.01       0.00         12          0          0
  simplerounding   :       0.00       0.00          0          0          0
  subnlp           :       0.00       0.00          0          0          0
  trivial          :       0.00       0.00          2          0          0
  trivialnegation  :       0.00       0.00          0          0          0
  trustregion      :       0.00       0.00          0          0          0
  trysol           :       0.00       0.00          0          0          0
  twoopt           :       0.00       0.00          0          0          0
  undercover       :       0.00       0.00          0          0          0
  vbounds          :       0.09       0.00          1          0          0
  veclendiving     :       0.00       0.00          0          0          0
  zeroobj          :       0.00       0.00          0          0          0
  zirounding       :       0.00       0.00          1          0          0
  other solutions  :          -          -          -          0          -
LP                 :       Time      Calls Iterations  Iter/call   Iter/sec  Time-0-It Calls-0-It    ItLimit
  primal LP        :       0.02          1          0       0.00       0.00       0.02          1
  dual LP          :       0.10         17       1202      85.86   12076.15       0.00          3
  lex dual LP      :       0.00          0          0       0.00          -
  barrier LP       :       0.00          0          0       0.00          -       0.00          0
  resolve instable :       0.00          0          0       0.00          -
  diving/probing LP:       0.17         93       1251      13.45    7379.92
  strong branching :       0.00          0          0       0.00          -          -          -          0
    (at root node) :          -          0          0       0.00          -
  conflict analysis:       0.00          0          0       0.00          -
B&B Tree           :
  number of runs   :          1
  nodes            :          1 (0 internal, 1 leaves)
  feasible leaves  :          0
  infeas. leaves   :          1
  objective leaves :          0
  nodes (total)    :          1 (0 internal, 1 leaves)
  nodes left       :          0
  max depth        :          0
  max depth (total):          0
  backtracks       :          0 (0.0%)
  early backtracks :          0 (0.0%)
  nodes exc. ref.  :          0 (0.0%)
  delayed cutoffs  :          0
  repropagations   :          0 (0 domain reductions, 0 cutoffs)
  avg switch length:       2.00
  switching time   :       0.00
Root Node          :
  First LP value   : +6.00000000000000e+01
  First LP Iters   :        310 (12109.85 Iter/sec)
  First LP Time    :       0.03
  Final Dual Bound : +6.10000000000000e+01
  Final Root Iters :       1264
  Root LP Estimate :                     -
Solution           :
  Solutions found  :          3 (2 improvements)
  First Solution   : +2.70360000000000e+04   (in run 1, after 1 nodes, 12.18 seconds, depth 61, found by <shiftandpropagate>)
  Gap First Sol.   :  300300.00 %
  Gap Last Sol.    :       1.67 %
  Primal Bound     : +6.10000000000000e+01   (in run 1, after 1 nodes, 13.96 seconds, depth 89, found by <farkasdiving>)
  Dual Bound       : +6.10000000000000e+01
  Gap              :       0.00 %
Integrals          :      Total       Avg%
  primal-dual      :    1396.39      98.39
  primal-ref       :          -          - (not evaluated)
  dual-ref         :          -          - (not evaluated)
written solution information to file <results/final_miplib_symretope_if_extended_generating_set_cpx_v802__settings_final_nopeek_norelabel_extend_norestarts__3__neos-525149.mps.gz.sol>
@04 1686663733
